(set-info :Origin "This instance was generated by: BanditFuzz-- an RL fuzzer for SMT solvers" )
(set-info :Author "Joe Scott, Fed Mora, Vijay Ganesh" )
(set-info :Contact "Joe Scott, joseph.scott@uwaterloo.ca")
(set-logic QF_BV)
(declare-const bool_0 Bool)
(declare-const bool_1 Bool)
(declare-const bool_2 Bool)
(declare-const bool_3 Bool)
(declare-const bool_4 Bool)
(declare-const bv_0 (_ BitVec 32))
(declare-const bv_1 (_ BitVec 32))
(declare-const bv_2 (_ BitVec 32))
(declare-const bv_3 (_ BitVec 32))
(declare-const bv_4 (_ BitVec 32))
(assert (bvsle (bvxor (bvsrem bv_0 #x5e2a6513 ) (bvashr bv_4 #xbb749961 )) (bvmul (bvand #xc038a4f9  #x1c32ca35 ) (bvashr bv_4 bv_0))))
(assert (bvsgt (bvxor (bvlshr bv_2 #x1a23e2f1 ) (bvxor #xd53634f7  bv_0)) (bvurem (bvsdiv bv_2 #x60a04361 ) (bvnor bv_0 bv_3))))
(assert (and (and (bvule #x1437e3f2  #xf749791f ) (or true bool_1)) (bvule (bvand #x2f5ad217  #x3b2d9237 ) (bvnand bv_4 bv_2))))
(assert (=> (bvsgt (bvurem #x7897de84  bv_4) (bvudiv #x976e1e71  bv_3)) (and (bvslt #x77da243c  bv_4) (bvsge #xf0577933  bv_2))))
(assert (and (bvsgt (bvxnor bv_4 #x42922845 ) (bvnor bv_2 bv_2)) (xor (not bool_1) (bvuge #xaa5e19d9  #xec581298 ))))
(check-sat)
(exit)
